Cu 
 1.0000000000000000
     3.7000000000000002    0.0000000000000000    0.0000000000000000
     0.0000000000000000    3.7000000000000002    0.0000000000000000
     0.0000000000000000    0.0000000000000000    3.7000000000000002
   4
Cartesian
  0.0000000000000000  0.0000000000000000  0.0000000000000000
  0.0000000000000000  1.8500000000000001  1.8500000000000001
  1.8500000000000001  0.0000000000000000  1.8500000000000001
  1.8500000000000001  1.8500000000000001  0.0000000000000000
