Fe  P  O  
  1.000000 
     4.860630000000000        0.000000000000000        0.000000000000000   
     0.000000000000000        5.885500000000000        0.000000000000000   
     0.000000000000000        0.000000000000000        9.914199999999999   
Fe   P   O
   4   4   16
Cartesian
2.191560850000000      4.414125000000000      7.674185650000000
0.238754150000000      4.414125000000000      2.717085650000000
2.669069150000000      1.471375000000000      2.240014350000000
4.621875850000000      1.471375000000000      7.197114350000000
4.381226060000000      4.414125000000000      5.887250240000000
2.909718940000000      4.414125000000000      0.930150240000000
0.479403940000000      1.471375000000000      4.026949760000000
1.950911060000000      1.471375000000000      8.984049760000000
1.026419240000000      4.414125000000000      6.149976540000000
1.403895760000000      4.414125000000000      1.192876540000000
3.834210760000000      1.471375000000000      3.764223460000000
3.456734240000000      1.471375000000000      8.721323460000001
3.174428850000000      4.414125000000000      9.346909480000001
4.116516150000000      4.414125000000000      4.389809480000000
1.686201150000000      1.471375000000000      0.567290520000000
0.744113850000000      1.471375000000000      5.524390520000000
3.659033660000000      5.613589900000000      6.613861960000000
3.631911340000000      3.214718950000000      1.656761960000000
1.201596340000000      2.670839900000000      3.300338040000000
1.228718660000000      0.271910100000000      8.257438040000000
1.201596340000000      0.271910100000000      3.300338040000000
1.228718660000000      2.670839900000000      8.257438040000000
3.659033660000000      3.214718950000000      6.613861960000000
3.631911340000000      5.613589900000000      1.656761960000000
