P  O  Fe  
  1.000000 
     4.860633270000000        0.000000000000000        0.000000000000000   
     0.000000000000000        5.885501460000000        0.000000000000000   
     0.000000000000000        0.000000000000000        9.914197630000000   
P   O   Fe
   4   16   4
Cartesian
4.381224000000000      4.414126000000000      5.887209000000000
2.909726000000000      4.414126000000000      0.930110000000000
0.479409000000000      1.471375000000000      4.026988000000000
1.950908000000000      1.471375000000000      8.984087000000001
1.026405000000000      4.414126000000000      6.149975000000000
1.403911000000000      4.414126000000000      1.192876000000000
3.834228000000000      1.471375000000000      3.764223000000000
3.456722000000000      1.471375000000000      8.721321000000000
3.174416000000000      4.414126000000000      9.346927000000001
4.116534000000000      4.414126000000000      4.389828000000000
1.686217000000000      1.471375000000000      0.567271000000000
0.744100000000000      1.471375000000000      5.524369000000000
3.659022000000000      5.613562000000000      6.613841000000000
3.631928000000000      3.214690000000000      1.656742000000000
1.201612000000000      2.670811000000000      3.300357000000000
1.228705000000000      0.271940000000000      8.257455999999999
1.201612000000000      0.271940000000000      3.300357000000000
1.228705000000000      2.670811000000000      8.257455999999999
3.659022000000000      3.214690000000000      6.613841000000000
3.631928000000000      5.613562000000000      1.656742000000000
2.191577000000000      4.414126000000000      7.674144000000000
0.238740000000000      4.414126000000000      2.717045000000000
2.669056000000000      1.471375000000000      2.240053000000000
4.621894000000000      1.471375000000000      7.197152000000000
