Cu 
 1.0000000000000000
     4.0999999999999996    0.0000000000000000    0.0000000000000000
     0.0000000000000000    4.0999999999999996    0.0000000000000000
     0.0000000000000000    0.0000000000000000    4.0999999999999996
   4
Cartesian
  0.0000000000000000  0.0000000000000000  0.0000000000000000
  0.0000000000000000  2.0499999999999994  2.0499999999999994
  2.0499999999999994  0.0000000000000000  2.0499999999999994
  2.0499999999999994  2.0499999999999994  0.0000000000000000
