Cu 
 1.0000000000000000
     3.6000000000000001    0.0000000000000000    0.0000000000000000
     0.0000000000000000    3.6000000000000001    0.0000000000000000
     0.0000000000000000    0.0000000000000000    3.6000000000000001
   4
Cartesian
  0.0000000000000000  0.0000000000000000  0.0000000000000000
  0.0000000000000000  1.7999999999999998  1.7999999999999998
  1.7999999999999998  0.0000000000000000  1.7999999999999998
  1.7999999999999998  1.7999999999999998  0.0000000000000000
