Fe  P  O 
 1.0000000000000000
     4.8606332700000001    0.0000000000000000    0.0000000000000000
     0.0000000000000000    5.8855014600000004    0.0000000000000000
     0.0000000000000000    0.0000000000000000    9.9141976300000003
Fe  P  O 
   4   4  16
Cartesian
  2.1915769106774099  4.4141260950000003  7.6741441606872796
  0.2387397243225900  4.4141260950000003  2.7170453456872803
  2.6690563593225898  1.4713753650000001  2.2400534693127203
  4.6218935456774100  1.4713753650000001  7.1971522843127209
  4.3812241499466298  4.4141260950000003  5.8872091798560806
  2.9097257550533704  4.4141260950000003  0.9301103648560800
  0.4794091200533700  1.4713753650000001  4.0269884501439197
  1.9509075149466300  1.4713753650000001  8.9840872651439199
  1.0264053457260900  4.4141260950000003  6.1499750738415999
  1.4039112892739101  4.4141260950000003  1.1928762588416000
  3.8342279242739101  1.4713753650000001  3.7642225561584004
  3.4567219807260900  1.4713753650000001  8.7213213711583997
  3.1744164004044899  4.4141260950000003  9.3469270700066609
  4.1165335045955098  4.4141260950000003  4.3898282550066599
  1.6862168695955102  1.4713753650000001  0.5672705599933400
  0.7440997654044901  1.4713753650000001  5.5243693749933405
  3.6590215374234898  5.6135618650407002  6.6138405525540405
  3.6319283675765104  3.2146903249593004  1.6567417375540401
  1.2016117325765099  2.6708111350407000  3.3003570774459603
  1.2287049024234900  0.2719395949593000  8.2574558924459591
  1.2016117325765099  0.2719395949593000  3.3003570774459603
  1.2287049024234900  2.6708111350407000  8.2574558924459591
  3.6590215374234898  3.2146903249593004  6.6138405525540405
  3.6319283675765104  5.6135618650407002  1.6567417375540401
