Cu 
 1.0000000000000000
     3.3999999999999999    0.0000000000000000    0.0000000000000000
     0.0000000000000000    3.3999999999999999    0.0000000000000000
     0.0000000000000000    0.0000000000000000    3.3999999999999999
   4
Cartesian
  0.0000000000000000  0.0000000000000000  0.0000000000000000
  0.0000000000000000  1.6999999999999997  1.6999999999999997
  1.6999999999999997  0.0000000000000000  1.6999999999999997
  1.6999999999999997  1.6999999999999997  0.0000000000000000
