Ni(111) C H O                           
   1.00000000000000     
    10.1003000000000007    0.0000000000000000    0.0000000000000000
    -5.0501500000000004    8.7471163858439702    0.0000000000000000
     0.0000000000000000    0.0000000000000000   18.1851999999999983 
    64     2     5     1
Selective dynamics
Direct
  0.0000000000000000  0.0000000000000000  0.0000000000000000   F   F   F
  0.2500000000000000  0.0000000000000000  0.0000000000000000   F   F   F
  0.5000000000000000  0.0000000000000000  0.0000000000000000   F   F   F
  0.7500000000000000  0.0000000000000000  0.0000000000000000   F   F   F
  0.0000000000000000  0.2500000000000000  0.0000000000000000   F   F   F
  0.2500000000000000  0.2500000000000000  0.0000000000000000   F   F   F
  0.5000000000000000  0.2500000000000000  0.0000000000000000   F   F   F
  0.7500000000000000  0.2500000000000000  0.0000000000000000   F   F   F
  0.0000000000000000  0.5000000000000000  0.0000000000000000   F   F   F
  0.2500000000000000  0.5000000000000000  0.0000000000000000   F   F   F
  0.5000000000000000  0.5000000000000000  0.0000000000000000   F   F   F
  0.7500000000000000  0.5000000000000000  0.0000000000000000   F   F   F
  0.0000000000000000  0.7500000000000000  0.0000000000000000   F   F   F
  0.2500000000000000  0.7500000000000000  0.0000000000000000   F   F   F
  0.5000000000000000  0.7500000000000000  0.0000000000000000   F   F   F
  0.7500000000000000  0.7500000000000000  0.0000000000000000   F   F   F
  0.0837190202949401  0.1670822024473147  0.1118728651686179   T   T   T
  0.3341452583287355  0.1670910352520208  0.1126264157687371   T   T   T
  0.5835667394237409  0.1670866260867259  0.1126384929001947   T   T   T
  0.8334635683865446  0.1668427964591623  0.1117577581426594   T   T   T
  0.0835129065807717  0.4170892292510609  0.1121980435927055   T   T   T
  0.3340119590000056  0.4166858780755183  0.1117577440382585   T   T   T
  0.5834989636624263  0.4159589898889631  0.1128651922690148   T   T   T
  0.8323750175664723  0.4162145034868880  0.1121693443624199   T   T   T
  0.0839987913543823  0.6675947126477633  0.1123747854907221   T   T   T
  0.3337037489281302  0.6671040750119472  0.1119757603793511   T   T   T
  0.5838367479663117  0.6671659123076247  0.1119937769027170   T   T   T
  0.8336949368522205  0.6669018436651275  0.1118358062426633   T   T   T
  0.0838889478242017  0.9166949137995751  0.1122894321850693   T   T   T
  0.3340627582977904  0.9178224061176152  0.1120662409453157   T   T   T
  0.5836824264577443  0.9169378998876061  0.1118482018529754   T   T   T
  0.8335166438369532  0.9167190011949818  0.1123986541572644   T   T   T
  0.1651814770073657  0.8328667124114102  0.2267443726986041   T   T   T
  0.6681251177676724  0.5843330902416026  0.2245990771848693   T   T   T
  0.4192689447750221  0.0868528704208083  0.2267448211011719   T   T   T
  0.1671192776196303  0.0832379563489909  0.2242827279919062   T   T   T
  0.6669520136931829  0.0836465633016657  0.2239528179165307   T   T   T
  0.1676066506199169  0.5842542578018118  0.2243070402498792   T   T   T
  0.4174692208795146  0.8346620837150748  0.2242696273424834   T   T   T
  0.9161283934726142  0.3332583152690968  0.2241368301815765   T   T   T
  0.9171280056451784  0.0834578490228934  0.2245406850513236   T   T   T
  0.9167854943352816  0.8322997845180389  0.2257494348205260   T   T   T
  0.6683576816767243  0.8323170041987877  0.2267052548918246   T   T   T
  0.1683400736789594  0.3339223192277018  0.2243695967380840   T   T   T
  0.9169609302139250  0.5834569604567839  0.2244872179823849   T   T   T
  0.4176123982490803  0.5836594655944598  0.2240166370324613   T   T   T
  0.4187867403052547  0.3319789799489242  0.2266538290707184   T   T   T
  0.6648996000364479  0.3340420635112433  0.2283996340215462   T   T   T
  0.0077350130125997  0.7532398754139006  0.3414933917289628   T   T   T
  0.2499397780051457 -0.0008252661675225  0.3355445750084682   T   T   T
  0.2517906219720785  0.7507089793319850  0.3368032167852125   T   T   T
  0.5014663516634290 -0.0001205618161019  0.3360274304751249   T   T   T
  0.4985832574452793  0.7513116139666571  0.3368091651238194   T   T   T
  0.7511768909598380  0.0028917609696567  0.3365839288551447   T   T   T
  0.0009549113181661  0.2503750108416628  0.3368475950001860   T   T   T
  0.0024143069917754  0.0045057072771950  0.3357555223414364   T   T   T
  0.4986741741037819  0.2490882781946822  0.3554189753388223   T   T   T
  0.7524419694500616  0.2490742674582936  0.3358405484746189   T   T   T
  0.0047430951805806  0.4980560822057640  0.3351921781828398   T   T   T
  0.2492868755037214  0.2503828288516448  0.3360330362712959   T   T   T
  0.2502688441080187  0.5002614659448134  0.3365180890636868   T   T   T
  0.7461093305864021  0.7540426445703583  0.3418240077787666   T   T   T
  0.7493826872131997  0.4943495484995503  0.3375569028403204   T   T   T
  0.4960121651088623  0.5007932620646040  0.3341652577927374   T   T   T
  0.4352725825933434  0.2681550675848252  0.4648780627971751   T   T   T
  0.5523231991084312  0.2314361886023443  0.4660888302021461   T   T   T
  0.3173298362224594  0.1805389159611735  0.4750471268798335   T   T   T
  0.4611831781665265  0.3847300056438580  0.4755112917941450   T   T   T
  0.6695934549669311  0.3203907376083560  0.4772542997131805   T   T   T
  0.5269966516317314  0.1154177813790219  0.4776798050455400   T   T   T
  0.8260094603534701  0.6496590476073257  0.4662535738413550   T   T   T
  0.8300423112401325  0.6611952147285233  0.4129034357627777   T   T   T
 
  