Ni  C  H  O 
 1.0000000000000000
    10.1003000000000007    0.0000000000000000    0.0000000000000000
    -5.0501499999999977    8.7471163858439667    0.0000000000000000
     0.0000000000000000    0.0000000000000000   18.1851999999999983
 Ni  C   H   O  
  64   2   5   1
Cartesian
  0.0000000000000000  0.0000000000000000  0.0000000000000000
  2.5250750000000002  0.0000000000000000  0.0000000000000000
  5.0501500000000004  0.0000000000000000  0.0000000000000000
  7.5752250000000005  0.0000000000000000  0.0000000000000000
 -1.2625374999999994  2.1867790964609917  0.0000000000000000
  1.2625375000000008  2.1867790964609917  0.0000000000000000
  3.7876125000000007  2.1867790964609917  0.0000000000000000
  6.3126875000000009  2.1867790964609917  0.0000000000000000
 -2.5250749999999988  4.3735581929219833  0.0000000000000000
  0.0000000000000013  4.3735581929219833  0.0000000000000000
  2.5250750000000015  4.3735581929219833  0.0000000000000000
  5.0501500000000021  4.3735581929219833  0.0000000000000000
 -3.7876124999999981  6.5603372893829750  0.0000000000000000
 -1.2625374999999981  6.5603372893829750  0.0000000000000000
  1.2625375000000021  6.5603372893829750  0.0000000000000000
  3.7876125000000025  6.5603372893829750  0.0000000000000000
  0.0045956365000005  1.4780002557160552  2.0260131319999997
  2.5320947085000003  1.4818489869258265  2.0487446319999996
  5.0498469910000008  1.4805369194679499  2.0496538919999998
  7.5749724925000015  1.4746763514894343  2.0240127599999997
 -1.2604669384999989  3.6612805056227091  2.0394701799999999
  1.2736983315000012  3.6597060246732571  2.0405612920000000
  3.7903900825000005  3.6565570627743536  2.0647476079999998
  6.3064253140000011  3.6597934958371154  2.0425616639999999
 -2.5270950599999984  5.8460477653149567  2.0405612920000000
  0.0044441320000019  5.8439484573823544  2.0358331399999998
  2.5238124625000014  5.8431612169076281  2.0414705519999998
  5.0578262280000024  5.8437735150546377  2.0385609200000001
 -3.7893800524999981  8.0344888138892578  2.0280135039999996
 -1.2610224549999978  8.0455976516992802  2.0300138759999995
  1.2683956740000024  8.0333516887590992  2.0265586879999997
  3.7898345660000023  8.0279284765998753  2.0378335119999997
 -2.5203783604999979  7.3242229633587286  4.0640284959999997
  3.7918546260000014  5.1459285697920061  4.0863962919999999
  3.7926121485000008  0.7903019654610024  4.1229485439999998
  1.2674866470000006  0.7613490102238589  4.0683929439999993
  6.3165761155000002  0.7596870581105485  4.0687566479999999
 -1.2585983829999985  5.1300088179697694  4.0743940599999995
  0.0030300900000021  7.3269345694383405  4.0622099759999992
  7.5700233455000001  2.9392935191351479  4.0771218400000002
  8.8420046260000014  0.7590747599635393  4.0693022039999995
  5.0477764295000025  7.3215988284429763  4.0978529679999998
  2.5365388405000031  7.3200243474935229  4.0954888919999997
  0.0135344020000010  2.9374566246941209  4.0783948039999993
  6.2996581130000022  5.1105902195931963  4.0942159279999997
  1.2823845895000017  5.1129519410173740  4.0925792599999999
  2.5496187290000014  2.9404306442653079  4.1511356039999994
  5.0314644450000010  2.9400807596098737  4.1511356039999994
 -3.7505949004999986  6.6134322858450476  6.0918601479999994
  2.5158332255000002  0.0063853949616661  6.0958608919999993
 -1.2583963769999980  6.5911271390611459  6.0969520039999994
  5.0660579725000003  0.0133830880703413  6.0987705239999999
  1.2350141825000021  6.6169311323993849  6.0889505159999997
  7.5748209880000008  0.0687523347927336  6.1085905319999991
 -1.2590528964999994  2.2396991505953476  6.1156827599999994
  0.0105548135000000  0.0702393445783271  6.1071357160000002
  3.7835218785000011  2.1317597343940333  6.4672026759999994
  6.3369787215000013  2.2120582628160808  6.1207746159999994
 -2.5056824239999989  4.4038232156170034  6.1082268279999994
  1.2454679930000008  2.2152946958788431  6.1229568399999996
 -0.0150494469999985  4.4090714854485098  6.1076812719999989
  3.7911981065000031  6.6790356587388775  6.2220661799999997
  5.1054491425000021  4.4292773242998091  6.1722387319999994
  2.4838152745000017  4.4319014592155623  6.1687835440000001
  2.9733263140000008  1.6822454233255115  8.5132195279999987
  4.5593764230000007  1.6974654058368803  8.7472630519999992
  2.8260639400000005  0.6667052109290271  9.2609949520000008
  3.1213462105000014  2.7251641100096879  8.8227316319999982
  5.2191785205000016  2.6516883323685985  9.3179146279999987
  5.0750472395000008  0.7651102702697719  8.9720321239999983
  2.1619187135000000  1.8969871305979811  9.1778885879999983
  5.0714616330000020  1.9756237069067184  7.8381849039999993
