Fe  P  O Fe  P  O Fe  P  O Fe Se  P  O  N 
 1.0000000000000000
     9.7212665400000002    0.0000000000000000    0.0000000000000000
     0.0000000000000000   11.7710029200000008    0.0000000000000000
     0.0000000000000000    0.0000000000000000    9.9141976300000003
   2   2   8   2   2   8   2   2   8   2   1   1   8   1
Cartesian
  2.1915769106774099  4.4141260950000003  7.6741441606872796
  4.6218935456774100  1.4713753650000001  7.1971522843127209
  4.3812241499466298  4.4141260950000003  5.8872091798560806
  1.9509075149466300  1.4713753650000001  8.9840872651439199
  1.0264053457260900  4.4141260950000003  6.1499750738415999
  3.4567219807260900  1.4713753650000001  8.7213213711583997
  3.1744164004044899  4.4141260950000003  9.3469270700066609
  0.7440997654044901  1.4713753650000001  5.5243693749933405
  3.6590215374234898  5.6135618650407002  6.6138405525540405
  1.2287049024234900  0.2719395949593000  8.2574558924459591
  1.2287049024234900  2.6708111350407000  8.2574558924459591
  3.6590215374234898  3.2146903249593004  6.6138405525540405
  8.3418112978590102 10.2996275550000007  7.6593807643558698
  4.6218935456774100  7.3568768250000005  7.1971522843127209
  5.5158245328322648 10.2996275549999989  7.6207742616499345
  1.9509075149466300  7.3568768250000005  8.9840872651439199
  8.2546674963785609 10.2996275550000007  9.5759198688175111
  3.4567219807260900  7.3568768250000005  8.7213213711583997
  8.6641566960815979 10.2996275550000007  5.7461976658201461
  0.7440997654044901  7.3568768250000005  5.5243693749933405
  6.5361334741413923 11.4990633250407015  7.5283652274118733
  1.2287049024234900  6.1574410549593006  8.2574558924459591
  1.2287049024234900  8.5563125950407013  8.2574558924459591
  6.5361334741413923  9.1001917849592999  7.5283652274118733
  7.0522101806774096  4.4141260950000003  7.6741441606872796
  9.4825268156774101  1.4713753650000001  7.1971522843127209
  9.2418574199466299  4.4141260950000003  5.8872091798560806
  6.8115407849466303  1.4713753650000001  8.9840872651439199
  5.8870386157260901  4.4141260950000003  6.1499750738415999
  8.3173552507260897  1.4713753650000001  8.7213213711583997
  8.0350496704044900  4.4141260950000003  9.3469270700066609
  5.6047330354044904  1.4713753650000001  5.5243693749933405
  8.5196548074234890  5.6135618650407002  6.6138405525540405
  6.0893381724234903  0.2719395949593000  8.2574558924459591
  6.0893381724234903  2.6708111350407000  8.2574558924459591
  8.5196548074234890  3.2146903249593004  6.6138405525540405
  4.6183501913362823 10.2996275550000007  4.5350259231696981
  9.4825268156774101  7.3568768250000005  7.1971522843127209
  1.7923634263095272 10.2996275550000007  4.4964194204637602
  6.8115407849466303  7.3568768250000005  8.9840872651439199
  4.5312063898558321 10.2996275550000007  6.4515650276313448
  8.3173552507260897  7.3568768250000005  8.7213213711583997
  4.9406955895588585 10.2996275549999989  2.6218428246339696
  5.6047330354044904  7.3568768250000005  5.5243693749933405
  2.8126723676186569 11.4990633250407015  4.4040103862256954
  6.0893381724234903  6.1574410549593006  8.2574558924459591
  6.0893381724234903  8.5563125950407013  8.2574558924459591
  2.8126723676186565  9.1001917849592999  4.4040103862256954
  5.6035385453383917  7.3568768250000005  4.0243688993910913
