Cu 
 1.0000000000000000
     4.2000000000000002    0.0000000000000000    0.0000000000000000
     0.0000000000000000    4.2000000000000002    0.0000000000000000
     0.0000000000000000    0.0000000000000000    4.2000000000000002
   4
Cartesian
  0.0000000000000000  0.0000000000000000  0.0000000000000000
  0.0000000000000000  2.0999999999999996  2.0999999999999996
  2.0999999999999996  0.0000000000000000  2.0999999999999996
  2.0999999999999996  2.0999999999999996  0.0000000000000000
