Cu 
 1.0000000000000000
     4.0000000000000000    0.0000000000000000    0.0000000000000000
     0.0000000000000000    4.0000000000000000    0.0000000000000000
     0.0000000000000000    0.0000000000000000    4.0000000000000000
   4
Cartesian
  0.0000000000000000  0.0000000000000000  0.0000000000000000
  0.0000000000000000  1.9999999999999998  1.9999999999999998
  1.9999999999999998  0.0000000000000000  1.9999999999999998
  1.9999999999999998  1.9999999999999998  0.0000000000000000
