Cu 
 1.0000000000000000
     3.8999999999999999    0.0000000000000000    0.0000000000000000
     0.0000000000000000    3.8999999999999999    0.0000000000000000
     0.0000000000000000    0.0000000000000000    3.8999999999999999
   4
Cartesian
  0.0000000000000000  0.0000000000000000  0.0000000000000000
  0.0000000000000000  1.9499999999999995  1.9499999999999995
  1.9499999999999995  0.0000000000000000  1.9499999999999995
  1.9499999999999995  1.9499999999999995  0.0000000000000000
