Ankit
5.43
1.0 0.0 0.0
0.0 1.0 0.0
0.0 0.0 1.0
Si
8
Direct
0.0 0.0 0.0
0.5  0.5 0.0
0.5 0.0 0.5
0.0 0.5 0.5
0.25 0.25 0.25
0.75 0.75 0.25
0.75 0.25 0.75
0.25 0.75 0.75