Ni  O  H  O  H  O  H  O  H 
 1.0000000000000000
     5.0204581464244873    0.0000000000000000    0.0000000000000000
     0.0000000000000000    8.6956885868802818    0.0000000000000000
     0.0000000000000000    0.0000000000000000   15.0000000000000000
 Ni  O   H   O   H   O   H   O   H  
  24   1   2   1   2   1   2   1   2
Cartesian
  1.2551145366061218  0.7246407155733567  3.4572367593768272
  3.7653436098183652  0.7246407155733567  3.4572367593768272
  0.0000000000000000  2.8985628622934270  3.4572367593768272
  2.5102290732122436  2.8985628622934270  3.4572367593768272
  1.2551145366061218  5.0724850090134979  3.4572367593768272
  3.7653436098183652  5.0724850090134979  3.4572367593768272
  0.0000000000000000  7.2464071557335688  3.4572367593768272
  2.5102290732122436  7.2464071557335688  3.4572367593768272
  0.0000000000000000  1.4492814311467135  5.5068302149999990
  2.5102290732122436  1.4492814311467135  5.5068302149999990
  1.2551145366061218  3.6232035778667839  5.5068302149999990
  3.7653436098183652  3.6232035778667839  5.5068302149999990
  0.0000000000000000  5.7971257245868539  5.5068302149999990
  2.5102290732122436  5.7971257245868539  5.5068302149999990
  1.2551145366061218  7.9710478713069248  5.5068302149999990
  3.7653436098183652  7.9710478713069248  5.5068302149999990
  0.0000000000000000  0.0000000000000000  7.5564236706231709
  2.5102290732122436  0.0000000000000000  7.5564236706231709
  1.2551145366061218  2.1739221467200704  7.5564236706231709
  3.7653436098183652  2.1739221467200704  7.5564236706231709
  0.0000000000000000  4.3478442934401409  7.5564236706231709
  2.5102290732122436  4.3478442934401409  7.5564236706231709
  1.2551145366061218  6.5217664401602118  7.5564236706231709
  3.7653436098183652  6.5217664401602118  7.5564236706231709
  0.0791919485934780  0.2847483586284295 10.3439719406231703
  1.0504613551258162  0.9405397767763702 10.2920471306231711
  4.1286334668924347  0.9408751554675845 10.2897637406231723
  2.5896971003573972  1.9005956007211222 10.4418899406231702
  2.5999946480304601  3.2158083331985652 10.3102385706231701
  2.5916012496469407  1.8186001092971802 11.5427632406231737
  2.6109209001839040  4.6317647134495310 10.2518395106231708
  3.5829463989776635  5.2939231341269721 10.3040913906231708
  1.6399564234155899  5.2803485725246793 10.3080587706231697
  0.0756518321213660  6.2493907551235486 10.1569315806231728
  0.0761841610574798  7.5642152508683269 10.2856267206231706
  0.0883621686859852  6.1643598130874810  9.0564236706231718
